c description: Graph 4-Colorability of graph: 
c generator: CNFgen (0.9.0)
c copyright: (C) 2012-2020 Massimo Lauria <massimo.lauria@uniroma1.it>
c url: https://massimolauria.net/cnfgen
c
p cnf 120 690
1 2 3 4 0
-1 -2 0
-1 -3 0
-1 -4 0
-2 -3 0
-2 -4 0
-3 -4 0
5 6 7 8 0
-5 -6 0
-5 -7 0
-5 -8 0
-6 -7 0
-6 -8 0
-7 -8 0
9 10 11 12 0
-9 -10 0
-9 -11 0
-9 -12 0
-10 -11 0
-10 -12 0
-11 -12 0
13 14 15 16 0
-13 -14 0
-13 -15 0
-13 -16 0
-14 -15 0
-14 -16 0
-15 -16 0
17 18 19 20 0
-17 -18 0
-17 -19 0
-17 -20 0
-18 -19 0
-18 -20 0
-19 -20 0
21 22 23 24 0
-21 -22 0
-21 -23 0
-21 -24 0
-22 -23 0
-22 -24 0
-23 -24 0
25 26 27 28 0
-25 -26 0
-25 -27 0
-25 -28 0
-26 -27 0
-26 -28 0
-27 -28 0
29 30 31 32 0
-29 -30 0
-29 -31 0
-29 -32 0
-30 -31 0
-30 -32 0
-31 -32 0
33 34 35 36 0
-33 -34 0
-33 -35 0
-33 -36 0
-34 -35 0
-34 -36 0
-35 -36 0
37 38 39 40 0
-37 -38 0
-37 -39 0
-37 -40 0
-38 -39 0
-38 -40 0
-39 -40 0
41 42 43 44 0
-41 -42 0
-41 -43 0
-41 -44 0
-42 -43 0
-42 -44 0
-43 -44 0
45 46 47 48 0
-45 -46 0
-45 -47 0
-45 -48 0
-46 -47 0
-46 -48 0
-47 -48 0
49 50 51 52 0
-49 -50 0
-49 -51 0
-49 -52 0
-50 -51 0
-50 -52 0
-51 -52 0
53 54 55 56 0
-53 -54 0
-53 -55 0
-53 -56 0
-54 -55 0
-54 -56 0
-55 -56 0
57 58 59 60 0
-57 -58 0
-57 -59 0
-57 -60 0
-58 -59 0
-58 -60 0
-59 -60 0
61 62 63 64 0
-61 -62 0
-61 -63 0
-61 -64 0
-62 -63 0
-62 -64 0
-63 -64 0
65 66 67 68 0
-65 -66 0
-65 -67 0
-65 -68 0
-66 -67 0
-66 -68 0
-67 -68 0
69 70 71 72 0
-69 -70 0
-69 -71 0
-69 -72 0
-70 -71 0
-70 -72 0
-71 -72 0
73 74 75 76 0
-73 -74 0
-73 -75 0
-73 -76 0
-74 -75 0
-74 -76 0
-75 -76 0
77 78 79 80 0
-77 -78 0
-77 -79 0
-77 -80 0
-78 -79 0
-78 -80 0
-79 -80 0
81 82 83 84 0
-81 -82 0
-81 -83 0
-81 -84 0
-82 -83 0
-82 -84 0
-83 -84 0
85 86 87 88 0
-85 -86 0
-85 -87 0
-85 -88 0
-86 -87 0
-86 -88 0
-87 -88 0
89 90 91 92 0
-89 -90 0
-89 -91 0
-89 -92 0
-90 -91 0
-90 -92 0
-91 -92 0
93 94 95 96 0
-93 -94 0
-93 -95 0
-93 -96 0
-94 -95 0
-94 -96 0
-95 -96 0
97 98 99 100 0
-97 -98 0
-97 -99 0
-97 -100 0
-98 -99 0
-98 -100 0
-99 -100 0
101 102 103 104 0
-101 -102 0
-101 -103 0
-101 -104 0
-102 -103 0
-102 -104 0
-103 -104 0
105 106 107 108 0
-105 -106 0
-105 -107 0
-105 -108 0
-106 -107 0
-106 -108 0
-107 -108 0
109 110 111 112 0
-109 -110 0
-109 -111 0
-109 -112 0
-110 -111 0
-110 -112 0
-111 -112 0
113 114 115 116 0
-113 -114 0
-113 -115 0
-113 -116 0
-114 -115 0
-114 -116 0
-115 -116 0
117 118 119 120 0
-117 -118 0
-117 -119 0
-117 -120 0
-118 -119 0
-118 -120 0
-119 -120 0
-1 -17 0
-2 -18 0
-3 -19 0
-4 -20 0
-1 -29 0
-2 -30 0
-3 -31 0
-4 -32 0
-1 -41 0
-2 -42 0
-3 -43 0
-4 -44 0
-1 -53 0
-2 -54 0
-3 -55 0
-4 -56 0
-1 -57 0
-2 -58 0
-3 -59 0
-4 -60 0
-1 -69 0
-2 -70 0
-3 -71 0
-4 -72 0
-1 -77 0
-2 -78 0
-3 -79 0
-4 -80 0
-1 -81 0
-2 -82 0
-3 -83 0
-4 -84 0
-1 -89 0
-2 -90 0
-3 -91 0
-4 -92 0
-1 -97 0
-2 -98 0
-3 -99 0
-4 -100 0
-5 -9 0
-6 -10 0
-7 -11 0
-8 -12 0
-5 -29 0
-6 -30 0
-7 -31 0
-8 -32 0
-5 -61 0
-6 -62 0
-7 -63 0
-8 -64 0
-5 -69 0
-6 -70 0
-7 -71 0
-8 -72 0
-5 -77 0
-6 -78 0
-7 -79 0
-8 -80 0
-5 -81 0
-6 -82 0
-7 -83 0
-8 -84 0
-9 -25 0
-10 -26 0
-11 -27 0
-12 -28 0
-9 -37 0
-10 -38 0
-11 -39 0
-12 -40 0
-9 -57 0
-10 -58 0
-11 -59 0
-12 -60 0
-9 -65 0
-10 -66 0
-11 -67 0
-12 -68 0
-9 -73 0
-10 -74 0
-11 -75 0
-12 -76 0
-9 -77 0
-10 -78 0
-11 -79 0
-12 -80 0
-9 -85 0
-10 -86 0
-11 -87 0
-12 -88 0
-9 -89 0
-10 -90 0
-11 -91 0
-12 -92 0
-9 -97 0
-10 -98 0
-11 -99 0
-12 -100 0
-9 -105 0
-10 -106 0
-11 -107 0
-12 -108 0
-9 -117 0
-10 -118 0
-11 -119 0
-12 -120 0
-13 -49 0
-14 -50 0
-15 -51 0
-16 -52 0
-13 -73 0
-14 -74 0
-15 -75 0
-16 -76 0
-13 -85 0
-14 -86 0
-15 -87 0
-16 -88 0
-13 -89 0
-14 -90 0
-15 -91 0
-16 -92 0
-13 -97 0
-14 -98 0
-15 -99 0
-16 -100 0
-13 -105 0
-14 -106 0
-15 -107 0
-16 -108 0
-17 -45 0
-18 -46 0
-19 -47 0
-20 -48 0
-17 -61 0
-18 -62 0
-19 -63 0
-20 -64 0
-17 -69 0
-18 -70 0
-19 -71 0
-20 -72 0
-17 -73 0
-18 -74 0
-19 -75 0
-20 -76 0
-17 -85 0
-18 -86 0
-19 -87 0
-20 -88 0
-17 -89 0
-18 -90 0
-19 -91 0
-20 -92 0
-17 -93 0
-18 -94 0
-19 -95 0
-20 -96 0
-17 -97 0
-18 -98 0
-19 -99 0
-20 -100 0
-17 -105 0
-18 -106 0
-19 -107 0
-20 -108 0
-17 -109 0
-18 -110 0
-19 -111 0
-20 -112 0
-17 -113 0
-18 -114 0
-19 -115 0
-20 -116 0
-21 -25 0
-22 -26 0
-23 -27 0
-24 -28 0
-21 -29 0
-22 -30 0
-23 -31 0
-24 -32 0
-21 -37 0
-22 -38 0
-23 -39 0
-24 -40 0
-21 -57 0
-22 -58 0
-23 -59 0
-24 -60 0
-21 -61 0
-22 -62 0
-23 -63 0
-24 -64 0
-21 -77 0
-22 -78 0
-23 -79 0
-24 -80 0
-21 -85 0
-22 -86 0
-23 -87 0
-24 -88 0
-25 -81 0
-26 -82 0
-27 -83 0
-28 -84 0
-25 -89 0
-26 -90 0
-27 -91 0
-28 -92 0
-25 -97 0
-26 -98 0
-27 -99 0
-28 -100 0
-25 -113 0
-26 -114 0
-27 -115 0
-28 -116 0
-29 -57 0
-30 -58 0
-31 -59 0
-32 -60 0
-29 -89 0
-30 -90 0
-31 -91 0
-32 -92 0
-29 -97 0
-30 -98 0
-31 -99 0
-32 -100 0
-29 -105 0
-30 -106 0
-31 -107 0
-32 -108 0
-29 -113 0
-30 -114 0
-31 -115 0
-32 -116 0
-33 -53 0
-34 -54 0
-35 -55 0
-36 -56 0
-33 -69 0
-34 -70 0
-35 -71 0
-36 -72 0
-33 -73 0
-34 -74 0
-35 -75 0
-36 -76 0
-33 -97 0
-34 -98 0
-35 -99 0
-36 -100 0
-33 -101 0
-34 -102 0
-35 -103 0
-36 -104 0
-33 -105 0
-34 -106 0
-35 -107 0
-36 -108 0
-33 -113 0
-34 -114 0
-35 -115 0
-36 -116 0
-37 -41 0
-38 -42 0
-39 -43 0
-40 -44 0
-37 -45 0
-38 -46 0
-39 -47 0
-40 -48 0
-37 -61 0
-38 -62 0
-39 -63 0
-40 -64 0
-37 -85 0
-38 -86 0
-39 -87 0
-40 -88 0
-37 -93 0
-38 -94 0
-39 -95 0
-40 -96 0
-37 -101 0
-38 -102 0
-39 -103 0
-40 -104 0
-41 -49 0
-42 -50 0
-43 -51 0
-44 -52 0
-41 -85 0
-42 -86 0
-43 -87 0
-44 -88 0
-41 -97 0
-42 -98 0
-43 -99 0
-44 -100 0
-41 -117 0
-42 -118 0
-43 -119 0
-44 -120 0
-45 -57 0
-46 -58 0
-47 -59 0
-48 -60 0
-45 -85 0
-46 -86 0
-47 -87 0
-48 -88 0
-49 -65 0
-50 -66 0
-51 -67 0
-52 -68 0
-49 -85 0
-50 -86 0
-51 -87 0
-52 -88 0
-49 -89 0
-50 -90 0
-51 -91 0
-52 -92 0
-49 -109 0
-50 -110 0
-51 -111 0
-52 -112 0
-53 -61 0
-54 -62 0
-55 -63 0
-56 -64 0
-53 -69 0
-54 -70 0
-55 -71 0
-56 -72 0
-53 -73 0
-54 -74 0
-55 -75 0
-56 -76 0
-53 -113 0
-54 -114 0
-55 -115 0
-56 -116 0
-57 -61 0
-58 -62 0
-59 -63 0
-60 -64 0
-57 -97 0
-58 -98 0
-59 -99 0
-60 -100 0
-61 -73 0
-62 -74 0
-63 -75 0
-64 -76 0
-61 -77 0
-62 -78 0
-63 -79 0
-64 -80 0
-61 -101 0
-62 -102 0
-63 -103 0
-64 -104 0
-61 -109 0
-62 -110 0
-63 -111 0
-64 -112 0
-61 -113 0
-62 -114 0
-63 -115 0
-64 -116 0
-61 -117 0
-62 -118 0
-63 -119 0
-64 -120 0
-65 -69 0
-66 -70 0
-67 -71 0
-68 -72 0
-65 -81 0
-66 -82 0
-67 -83 0
-68 -84 0
-65 -85 0
-66 -86 0
-67 -87 0
-68 -88 0
-65 -89 0
-66 -90 0
-67 -91 0
-68 -92 0
-65 -93 0
-66 -94 0
-67 -95 0
-68 -96 0
-65 -101 0
-66 -102 0
-67 -103 0
-68 -104 0
-69 -105 0
-70 -106 0
-71 -107 0
-72 -108 0
-73 -81 0
-74 -82 0
-75 -83 0
-76 -84 0
-73 -85 0
-74 -86 0
-75 -87 0
-76 -88 0
-73 -89 0
-74 -90 0
-75 -91 0
-76 -92 0
-77 -89 0
-78 -90 0
-79 -91 0
-80 -92 0
-77 -113 0
-78 -114 0
-79 -115 0
-80 -116 0
-77 -117 0
-78 -118 0
-79 -119 0
-80 -120 0
-85 -97 0
-86 -98 0
-87 -99 0
-88 -100 0
-85 -109 0
-86 -110 0
-87 -111 0
-88 -112 0
-89 -97 0
-90 -98 0
-91 -99 0
-92 -100 0
-89 -113 0
-90 -114 0
-91 -115 0
-92 -116 0
-89 -117 0
-90 -118 0
-91 -119 0
-92 -120 0
-93 -97 0
-94 -98 0
-95 -99 0
-96 -100 0
-93 -117 0
-94 -118 0
-95 -119 0
-96 -120 0
-97 -101 0
-98 -102 0
-99 -103 0
-100 -104 0
-97 -117 0
-98 -118 0
-99 -119 0
-100 -120 0
-101 -105 0
-102 -106 0
-103 -107 0
-104 -108 0
-105 -117 0
-106 -118 0
-107 -119 0
-108 -120 0
-109 -117 0
-110 -118 0
-111 -119 0
-112 -120 0